#3x3_3_conGames# 22 2 31 1000000000
2 2 2 2 2 2 2 2 2 2 2 2 2 2 2 2 2 2 2 2 2 2 
1 0 0 2
0 0
1 965
1 1 0 2
0 0
1 795
1 2 0 2
0 0
1 305
1 3 0 2
0 0
1 685
1 4 0 2
0 0
1 125
1 5 0 2
0 0
1 275
1 6 0 2
0 0
1 345
1 7 0 2
0 0
1 655
1 8 0 2
0 0
1 515
1 9 0 2
0 0
1 845
1 10 0 2
0 0
1 445
1 11 0 2
0 0
1 195
1 12 0 2
0 0
1 145
1 13 0 2
0 0
1 265
1 14 0 2
0 0
1 585
1 15 0 2
0 0
1 385
1 16 0 2
0 0
1 435
1 17 0 2
0 0
1 815
1 18 0 2
0 0
1 195
1 19 0 2
0 0
1 375
1 20 0 2
0 0
1 665
1 21 0 2
0 0
1 675
6 0 1 2 3 8 11 0 64
1 0 0 1 1 1 10000
0 1 0 1 1 0 10000
0 1 1 1 0 1 0
1 1 0 0 1 0 10000
0 0 1 0 1 0 0
0 1 1 0 0 0 10000
1 0 0 0 0 0 10000
0 1 1 1 1 1 10000
1 0 0 1 0 0 0
1 1 1 1 1 0 10000
0 0 1 0 0 1 0
0 1 1 0 1 1 0
0 0 1 1 0 0 0
0 1 1 1 0 0 10000
1 0 1 1 0 1 0
0 0 1 0 1 1 10000
1 1 1 0 1 0 10000
0 1 1 0 0 1 10000
1 0 1 0 0 0 10000
0 0 1 1 1 1 10000
1 1 1 1 0 0 10000
1 0 1 1 1 1 10000
1 0 0 1 1 0 10000
0 0 1 0 0 0 10000
1 1 1 0 0 1 10000
0 1 1 0 1 0 10000
1 0 1 0 1 1 0
0 0 1 1 0 1 10000
0 0 0 1 1 0 10000
1 0 1 1 0 0 10000
1 1 1 0 1 1 10000
1 0 1 0 0 1 10000
1 1 1 1 0 1 10000
0 0 1 1 1 0 10000
0 0 0 1 0 1 10000
0 0 0 0 0 0 0
1 1 1 0 0 0 10000
1 0 1 0 1 0 10000
0 1 0 0 1 0 0
0 0 0 1 1 1 10000
1 1 0 1 1 0 0
0 0 0 0 1 1 10000
1 0 0 1 0 1 10000
0 1 0 0 0 1 0
0 0 0 1 0 0 10000
1 1 0 1 0 1 0
0 1 0 1 0 0 0
0 0 0 0 0 1 10000
1 1 0 0 0 0 10000
0 1 0 0 1 1 10000
1 0 0 0 1 0 0
1 1 0 1 1 1 10000
0 1 0 1 1 1 10000
0 0 0 0 1 0 10000
1 1 0 0 1 1 0
0 1 0 0 0 0 10000
1 0 0 0 0 1 0
1 1 0 1 0 0 10000
0 1 0 1 0 1 10000
0 1 1 1 1 0 0
1 1 0 0 0 1 10000
1 0 1 1 1 0 0
1 1 1 1 1 1 0
1 0 0 0 1 1 10000
8 3 4 5 6 0 9 12 16 0 256
1 0 0 0 1 0 0 0 0
0 0 0 0 1 0 0 0 10000
1 0 0 0 1 1 1 1 10000
0 1 1 1 0 1 0 1 10000
0 1 1 0 0 1 1 0 0
0 1 1 0 1 1 1 0 10000
1 1 1 1 1 1 0 1 10000
1 0 1 0 1 1 1 0 10000
0 0 1 0 1 1 1 0 10000
0 0 1 0 1 0 0 1 10000
1 0 0 0 0 0 1 0 0
0 1 0 0 0 1 1 0 10000
0 1 0 1 0 1 0 1 0
1 1 0 1 1 1 1 1 10000
1 0 1 1 0 0 0 0 10000
1 1 1 0 1 0 1 1 0
1 0 1 0 0 0 0 1 10000
0 0 1 0 0 1 0 0 0
1 1 1 0 1 1 0 0 10000
0 1 1 1 1 0 1 0 10000
1 1 0 1 0 0 1 0 10000
0 0 1 0 0 0 1 1 10000
0 0 0 0 0 1 0 1 10000
1 0 0 1 0 0 1 0 10000
1 0 1 0 1 1 0 0 0
0 1 0 1 1 1 0 1 10000
0 1 1 1 1 0 0 0 10000
1 0 1 0 1 0 1 1 10000
1 0 1 1 1 0 1 0 10000
1 0 0 1 1 1 1 1 10000
0 1 1 1 1 1 1 1 10000
0 0 1 1 0 1 1 0 0
1 1 0 0 0 0 1 0 10000
0 1 0 0 1 0 1 1 10000
1 0 0 1 1 0 0 0 10000
1 1 1 1 0 1 1 0 10000
0 0 0 0 1 1 0 1 10000
1 0 1 1 1 1 0 1 0
0 1 0 0 1 1 0 0 10000
0 1 1 1 0 0 1 0 10000
1 1 0 0 1 1 1 1 10000
0 0 1 1 1 1 1 0 10000
0 0 0 1 1 0 1 1 10000
1 1 0 0 1 0 0 0 10000
0 1 0 0 0 0 0 1 0
1 1 1 1 0 1 1 1 10000
0 1 0 1 0 0 0 0 10000
0 0 0 1 1 1 0 0 10000
1 0 1 1 0 1 0 1 10000
0 1 1 0 0 0 1 0 10000
0 1 0 1 0 1 1 1 10000
1 0 1 0 0 0 1 0 10000
1 1 1 0 1 0 0 1 10000
0 0 0 1 0 0 0 1 0
1 0 0 0 0 1 1 0 10000
1 0 0 1 0 1 0 1 0
0 0 0 0 0 0 0 0 0
1 1 1 0 0 1 1 1 0
0 1 0 1 1 0 1 0 0
0 1 0 0 1 1 0 1 10000
0 0 0 0 0 1 1 1 10000
0 1 1 0 1 0 0 0 10000
1 1 1 0 0 1 0 0 10000
0 0 1 1 0 0 1 1 0
1 1 0 1 0 1 1 0 10000
1 1 0 0 0 1 0 1 0
0 0 1 1 0 1 0 0 10000
1 1 1 1 1 0 0 0 10000
0 0 0 0 1 0 1 0 10000
1 0 0 1 1 1 0 1 10000
1 1 0 1 1 0 0 0 10000
1 1 1 0 1 1 1 0 0
1 0 1 1 1 0 0 0 10000
0 1 0 0 1 0 0 1 10000
0 1 1 1 0 1 1 1 0
0 0 1 1 1 0 0 1 0
1 0 1 1 1 1 1 1 10000
1 0 1 1 0 1 1 1 0
1 0 0 0 1 0 1 1 10000
1 1 0 0 1 1 0 1 10000
0 1 0 0 0 1 0 0 0
1 0 0 0 1 1 0 0 10000
0 0 0 1 1 0 0 1 10000
1 0 1 1 0 0 1 0 10000
0 1 0 0 0 0 1 1 10000
0 1 1 0 0 1 0 1 0
1 1 1 0 0 0 0 0 10000
1 1 1 1 1 1 1 0 10000
1 1 1 1 1 1 1 1 0
1 1 0 1 1 0 1 1 0
0 0 1 0 1 0 1 0 10000
1 0 0 0 0 0 0 1 0
0 0 0 1 0 1 0 0 0
1 0 0 1 0 0 0 0 10000
1 1 0 1 1 1 0 0 10000
0 0 0 1 0 0 1 1 10000
1 0 0 1 0 1 1 1 10000
0 0 1 0 0 1 1 1 10000
0 1 1 0 1 1 0 1 10000
1 0 1 1 1 0 1 1 0
1 0 1 0 1 1 1 1 10000
1 1 0 1 0 0 0 1 10000
0 0 1 0 0 0 0 0 10000
1 1 0 0 0 0 0 0 10000
0 0 1 1 0 0 0 1 10000
1 0 0 1 1 0 1 0 0
0 1 0 1 1 1 1 0 10000
1 1 0 0 0 1 1 1 10000
0 1 0 0 1 1 1 0 10000
1 0 1 0 1 0 0 0 10000
1 1 1 1 0 0 1 1 10000
0 1 1 1 1 1 0 0 10000
0 0 1 1 1 1 0 0 0
1 1 1 1 0 1 0 0 10000
1 1 0 0 1 0 1 0 0
0 0 1 1 1 0 1 1 10000
0 0 0 1 1 1 1 0 10000
1 0 0 0 1 0 0 1 10000
0 1 1 1 0 0 0 1 10000
0 1 1 0 0 0 0 0 10000
0 0 1 0 1 1 0 1 10000
0 1 1 0 0 1 1 1 10000
1 0 0 0 0 1 0 0 0
0 1 0 1 0 0 1 1 0
0 1 1 1 1 0 1 1 0
1 0 0 0 0 0 1 1 10000
1 0 1 0 0 1 0 1 0
0 1 0 1 0 1 0 0 10000
0 1 1 0 1 0 1 0 0
1 1 1 0 1 0 1 0 10000
1 1 0 1 0 1 0 0 10000
0 0 1 0 0 1 0 1 10000
0 0 0 0 0 0 1 1 10000
0 1 0 1 1 0 0 1 0
1 1 0 1 0 0 1 1 10000
0 0 0 0 0 1 0 0 10000
0 1 1 0 0 0 1 1 0
0 0 0 1 0 1 1 0 10000
1 0 1 0 1 1 0 1 10000
1 0 1 0 0 0 1 1 0
1 1 1 0 0 0 1 1 10000
0 1 1 1 1 0 0 1 10000
1 1 1 1 0 0 0 1 10000
0 0 0 0 1 0 0 1 10000
1 0 0 1 1 1 1 0 10000
1 0 0 0 1 1 1 0 10000
0 1 0 0 1 0 1 0 10000
0 1 1 1 0 1 0 0 10000
1 0 1 1 1 1 0 0 10000
1 1 1 1 1 1 0 0 10000
0 1 1 1 0 0 1 1 10000
0 0 1 0 1 0 0 0 0
1 1 0 0 1 1 1 0 10000
0 1 0 0 0 1 1 1 10000
1 1 0 1 1 0 0 1 10000
1 1 0 1 1 1 1 0 0
0 0 0 1 1 0 1 0 10000
1 0 1 1 0 0 0 1 10000
0 1 0 0 0 0 0 0 10000
0 0 0 0 1 1 1 0 10000
0 1 0 1 0 0 0 1 10000
1 1 1 1 1 0 1 1 10000
1 1 1 0 1 1 0 1 0
1 0 1 0 0 1 1 1 10000
0 0 1 0 0 0 1 0 0
1 0 0 1 0 0 1 1 0
0 1 0 1 1 1 0 0 0
0 0 0 1 0 0 0 0 10000
1 0 0 1 0 1 0 0 10000
0 0 0 0 0 0 0 1 10000
1 0 1 0 1 0 1 0 0
0 1 0 1 1 0 1 1 10000
0 1 1 1 1 1 1 0 0
1 1 1 0 0 1 0 1 10000
1 1 0 0 0 0 1 1 0
0 0 1 1 0 0 1 0 10000
1 0 0 1 1 0 0 1 0
0 0 0 0 1 1 0 0 10000
1 1 0 0 0 1 0 0 10000
0 0 1 0 1 1 1 1 10000
0 0 0 0 1 0 1 1 10000
1 1 1 0 1 1 1 1 10000
1 1 1 1 0 0 0 0 10000
0 0 1 1 1 1 1 1 10000
1 0 1 1 1 0 0 1 10000
1 1 0 0 1 0 0 1 0
0 0 1 1 1 0 0 0 10000
0 0 0 1 1 1 0 1 10000
1 0 0 0 1 0 1 0 10000
1 0 1 1 0 1 0 0 10000
0 1 0 0 0 1 0 1 10000
0 1 0 1 0 1 1 0 0
1 0 1 0 0 0 0 0 10000
1 0 1 1 0 0 1 1 10000
0 1 1 0 0 1 0 0 10000
1 1 1 0 1 0 0 0 10000
1 0 0 0 0 1 1 1 10000
1 1 0 1 1 0 1 0 10000
1 0 0 0 0 0 0 0 10000
0 0 0 0 0 0 1 0 10000
0 0 0 1 0 1 0 1 10000
0 0 0 0 0 1 1 0 10000
1 0 0 1 0 0 0 1 10000
0 1 1 0 1 0 0 1 0
1 0 1 0 1 0 0 1 0
1 0 1 1 0 1 1 0 10000
1 1 0 1 0 1 1 1 0
0 0 1 0 0 1 1 0 10000
0 0 1 1 0 1 0 1 0
1 0 0 1 1 1 0 0 0
1 1 0 1 0 0 0 0 10000
1 1 0 0 0 0 0 1 10000
0 1 0 0 1 0 0 0 0
1 0 0 1 1 0 1 1 10000
1 1 1 1 1 0 0 1 10000
1 0 1 1 1 1 1 0 0
0 1 0 0 1 1 1 1 10000
1 1 1 1 0 0 1 0 10000
1 1 0 0 1 1 0 0 0
0 0 1 1 1 1 0 1 10000
1 1 1 0 0 0 0 1 10000
1 0 0 0 1 1 0 1 10000
0 0 0 1 1 0 0 0 0
1 1 0 0 1 0 1 1 10000
0 1 0 0 0 0 1 0 0
1 1 1 0 0 0 1 0 10000
0 0 0 1 1 1 1 1 10000
0 1 1 1 0 0 0 0 10000
0 0 1 0 1 0 1 1 10000
0 1 1 0 0 0 0 1 10000
1 1 0 1 1 1 0 1 0
0 0 1 0 1 1 0 0 10000
0 0 0 1 0 0 1 0 0
1 0 0 0 0 1 0 1 10000
1 0 0 1 0 1 1 0 0
0 1 0 1 0 0 1 0 10000
0 1 1 0 1 1 0 0 0
1 0 1 0 0 1 0 0 10000
0 0 1 0 0 0 0 1 0
0 1 1 0 1 0 1 1 10000
0 1 1 1 0 1 1 0 10000
0 0 1 1 0 0 0 0 10000
0 1 0 1 1 1 1 1 10000
1 0 1 0 0 1 1 0 0
1 1 0 1 0 1 0 1 10000
1 1 0 0 0 1 1 0 0
0 0 1 1 0 1 1 1 10000
0 0 0 0 1 1 1 1 10000
0 1 0 1 1 0 0 0 10000
1 1 1 1 1 0 1 0 10000
0 1 1 1 1 1 0 1 0
1 1 1 0 0 1 1 0 10000
1 1 1 1 0 1 0 1 10000
0 0 0 1 0 1 1 1 10000
0 0 1 1 1 0 1 0 0
0 1 1 0 1 1 1 1 10000
2 7 17 0 4
0 1 10000
1 0 10000
0 0 0
1 1 0
2 8 1 0 4
0 1 10000
1 0 0
0 0 10000
1 1 10000
4 9 10 4 19 0 16
1 0 1 1 0
1 1 0 1 10000
1 0 0 0 10000
0 1 1 0 10000
1 0 1 0 10000
0 0 0 1 0
0 0 1 1 10000
1 0 0 1 10000
0 1 0 0 10000
1 1 1 1 10000
0 0 0 0 10000
0 0 1 0 0
0 1 0 1 10000
1 1 1 0 10000
0 1 1 1 0
1 1 0 0 10000
10 11 12 13 14 15 2 5 20 18 21 0 1024
1 0 1 1 1 0 0 0 1 1 10000
0 1 1 0 0 1 0 0 0 1 0
1 1 1 1 1 1 0 1 1 1 10000
1 1 1 0 1 1 1 1 1 1 10000
1 0 1 1 0 0 0 0 0 1 10000
1 0 1 1 1 0 0 1 0 0 10000
1 0 1 0 1 1 1 1 0 1 10000
0 0 0 1 1 1 0 0 0 1 0
1 0 0 0 0 0 0 1 0 0 0
1 0 0 1 1 1 0 0 1 0 10000
1 1 0 1 0 1 1 1 0 1 10000
0 0 1 1 1 0 0 1 1 1 0
1 0 0 0 0 0 0 0 1 1 10000
1 1 1 0 0 1 0 0 1 0 10000
0 0 1 1 1 0 0 0 0 0 10000
1 0 0 0 0 1 1 0 1 0 10000
1 0 0 1 0 1 0 1 1 0 10000
0 0 1 1 1 0 1 1 1 0 0
0 0 1 1 1 1 1 0 0 1 0
1 1 1 1 1 0 1 0 1 0 10000
0 1 0 0 0 1 0 0 0 1 10000
1 0 0 1 0 1 1 0 0 0 0
1 1 1 0 1 1 0 1 1 0 10000
1 0 0 1 0 0 1 1 1 1 10000
0 1 1 0 1 0 1 1 0 1 0
1 1 0 0 0 0 0 0 0 1 10000
1 0 0 1 0 1 1 1 1 1 10000
1 0 0 1 0 0 1 0 0 0 10000
1 1 1 0 1 1 1 0 0 0 10000
1 0 1 1 1 0 1 1 0 1 10000
0 0 0 1 0 0 1 1 0 1 10000
1 1 1 1 0 1 0 0 0 0 10000
0 1 0 0 1 1 0 1 0 1 10000
1 0 0 1 0 0 0 1 1 0 0
1 1 1 0 1 0 1 0 0 0 10000
1 0 1 0 1 1 0 1 0 0 10000
1 0 1 1 1 1 1 1 0 0 10000
0 1 0 0 1 0 1 1 0 0 0
1 0 1 0 1 0 0 1 0 1 10000
0 1 0 0 1 0 1 0 1 1 10000
1 0 0 1 1 0 1 0 1 0 10000
1 0 1 1 1 0 0 1 0 1 10000
1 1 0 1 0 0 0 1 0 1 10000
1 0 1 0 1 1 1 1 0 0 0
1 1 1 0 0 0 1 0 1 0 10000
1 0 0 0 1 0 0 0 1 0 10000
1 0 1 0 1 1 1 0 1 1 10000
1 0 0 0 0 0 1 1 0 1 10000
1 1 0 1 0 1 1 1 0 0 0
1 0 0 0 0 0 0 0 1 0 0
1 0 0 1 1 1 0 1 0 0 10000
1 1 1 0 0 1 0 0 1 1 0
1 1 0 1 0 1 1 0 1 1 10000
0 0 1 1 1 0 0 0 0 1 10000
0 1 0 0 0 0 1 0 0 1 10000
1 1 1 1 0 1 0 0 1 0 10000
0 1 0 0 0 1 1 1 1 0 10000
1 0 0 1 0 1 0 1 1 1 10000
1 1 1 1 0 1 0 0 1 1 10000
1 1 0 0 0 1 1 0 0 1 10000
1 1 1 1 0 1 1 1 1 0 0
1 1 0 0 0 0 1 1 1 0 10000
1 0 0 1 0 1 0 0 0 0 10000
0 1 0 0 0 1 0 0 0 0 0
1 1 1 0 1 1 0 1 1 1 0
0 1 1 1 0 1 1 0 0 0 10000
1 1 0 0 0 0 0 0 0 0 10000
0 1 0 0 0 1 0 1 1 1 10000
1 0 0 1 0 1 1 1 1 0 10000
1 1 1 0 1 1 0 0 0 0 10000
1 0 0 1 0 0 1 0 0 1 0
0 1 1 0 0 0 1 1 0 1 10000
1 0 1 0 0 0 0 1 0 1 0
0 1 0 0 1 1 0 1 0 0 0
0 1 0 1 0 0 0 0 1 0 10000
1 1 1 0 1 0 1 0 0 1 10000
0 0 0 1 1 0 1 1 0 1 10000
0 1 0 0 1 1 0 0 1 1 10000
1 0 0 0 1 0 0 0 0 1 10000
1 0 0 0 0 0 1 1 1 0 10000
0 0 1 0 1 0 0 0 1 0 10000
1 0 1 0 1 0 0 1 0 0 10000
0 1 0 0 1 0 1 0 1 0 0
1 0 0 1 1 0 1 0 1 1 0
1 0 1 0 1 0 0 0 1 1 10000
1 1 0 1 0 0 0 1 0 0 10000
1 1 0 0 1 1 0 0 1 0 10000
1 0 0 1 1 0 1 1 0 0 10000
1 1 0 1 1 1 0 1 1 1 0
1 1 0 1 0 0 0 0 1 1 10000
1 0 1 0 1 1 1 0 1 0 0
0 1 0 0 0 0 0 1 1 0 10000
1 0 0 1 1 1 0 1 0 1 0
1 1 0 1 0 1 0 1 1 1 10000
0 1 1 0 1 1 0 0 0 1 10000
1 1 0 1 0 1 1 0 1 0 0
1 1 0 0 0 1 0 1 1 0 10000
0 1 0 0 0 0 1 0 0 0 0
0 1 0 0 0 1 1 1 1 1 10000
0 0 0 1 0 1 0 0 0 1 10000
1 1 0 0 0 1 1 0 0 0 0
0 1 0 0 0 0 1 1 1 1 10000
1 1 0 0 0 0 1 1 1 1 10000
0 1 0 0 0 1 1 0 0 0 10000
1 0 0 1 0 1 0 0 0 1 0
1 0 0 0 1 0 0 1 1 1 10000
0 1 1 0 0 1 0 1 0 1 10000
1 1 0 0 0 0 1 0 0 0 10000
0 1 0 0 0 1 0 1 1 0 10000
0 1 0 1 0 1 1 0 1 0 10000
1 1 1 0 1 1 0 0 0 1 10000
0 0 0 1 1 1 0 1 0 1 10000
0 1 1 0 0 0 1 1 0 0 0
0 0 1 0 1 1 1 0 1 0 10000
0 1 0 1 0 0 0 0 1 1 0
0 1 1 0 0 0 1 0 1 1 10000
0 0 0 1 1 0 1 1 0 0 0
0 1 0 0 1 1 0 0 1 0 0
0 1 0 1 0 0 0 1 0 0 10000
0 0 1 0 1 0 0 0 1 1 0
0 0 0 1 1 0 1 0 1 1 10000
1 1 0 0 1 0 1 0 1 0 10000
0 0 1 0 1 0 0 1 0 0 10000
1 0 1 0 1 0 0 0 1 0 10000
0 0 1 1 1 1 1 1 0 1 10000
1 1 0 1 1 1 1 1 0 1 0
1 1 0 0 1 1 0 0 1 1 0
1 0 0 1 1 0 1 1 0 1 0
0 1 1 0 1 0 1 0 0 1 10000
1 1 0 1 0 0 0 0 1 0 10000
0 1 1 0 1 1 1 1 1 0 10000
0 1 0 0 0 0 0 1 1 1 10000
1 1 0 0 1 0 1 1 0 1 0
0 0 0 1 0 0 1 0 0 1 10000
0 1 1 0 1 1 0 0 0 0 10000
0 0 0 1 0 1 1 1 1 0 10000
1 1 0 0 0 1 0 1 1 1 10000
0 1 0 0 0 0 0 0 0 0 10000
1 1 0 0 1 0 0 1 0 0 10000
0 1 1 0 1 1 0 1 1 1 10000
1 1 1 0 0 0 0 1 1 1 0
1 1 0 0 0 1 0 0 0 0 10000
0 0 0 1 0 1 0 0 0 0 0
0 1 0 0 0 0 1 1 1 0 10000
0 1 0 0 0 1 1 0 0 1 10000
0 0 0 1 0 1 0 1 1 1 10000
0 1 1 0 0 1 0 1 0 0 0
1 1 0 0 0 0 1 0 0 1 0
1 0 1 1 0 0 0 0 1 0 10000
1 0 1 1 1 0 0 0 0 1 10000
0 1 0 1 0 1 1 0 1 1 10000
0 1 1 0 0 1 0 0 1 1 10000
0 0 0 1 1 1 0 1 0 0 0
0 0 0 0 0 0 0 0 1 0 10000
0 1 0 1 0 1 1 1 0 0 10000
0 0 1 0 1 1 1 0 1 1 10000
0 0 0 1 1 1 0 0 1 1 10000
0 1 1 0 0 0 1 0 1 0 0
1 1 1 1 1 0 0 1 1 0 10000
0 0 1 0 1 1 1 1 0 0 10000
0 1 0 1 0 0 0 1 0 1 0
0 0 1 1 1 0 0 1 0 1 10000
0 0 0 1 1 0 1 0 1 0 0
1 1 0 0 1 0 1 0 1 1 0
1 1 0 0 1 0 1 1 1 0 0
0 0 1 0 1 0 0 1 0 1 0
1 0 0 0 0 1 1 1 1 1 10000
0 1 1 0 1 0 0 1 1 0 10000
0 0 1 1 1 1 1 1 0 0 0
0 0 1 1 1 1 1 0 1 1 10000
0 1 1 0 1 0 1 0 0 0 10000
0 0 0 1 0 0 0 1 1 0 10000
0 1 1 0 1 1 1 1 1 1 10000
1 1 1 0 1 1 1 1 0 0 10000
1 0 0 1 0 0 1 1 0 1 10000
0 1 1 0 1 0 1 1 1 1 10000
0 1 1 0 1 1 1 0 0 0 10000
0 0 0 1 0 0 1 0 0 0 0
0 0 0 1 0 1 1 1 1 1 10000
0 1 0 0 0 0 0 0 0 1 0
1 1 1 0 1 0 1 1 0 1 10000
0 0 0 1 0 0 1 1 1 1 10000
0 1 1 0 1 1 0 1 1 0 0
0 0 0 1 0 1 1 0 0 0 10000
1 1 0 0 0 1 0 0 0 1 0
1 0 1 1 1 1 1 0 0 1 10000
1 0 1 1 1 0 1 1 1 0 10000
1 1 1 0 1 0 1 1 1 1 0
0 0 0 1 0 1 0 1 1 0 10000
0 0 0 0 0 1 1 0 1 0 10000
1 1 1 0 1 0 0 1 1 0 10000
1 0 1 1 1 0 0 0 0 0 10000
0 1 1 0 0 1 0 0 1 0 0
0 0 0 0 0 0 0 0 1 1 10000
1 0 1 1 1 0 0 1 1 1 10000
0 1 0 1 0 1 1 1 0 1 10000
0 0 0 1 1 1 0 0 1 0 0
0 0 0 0 0 0 0 1 0 0 10000
1 1 0 0 1 1 1 0 1 0 0
1 0 0 1 1 1 0 0 0 1 10000
0 0 1 0 1 1 1 1 0 1 10000
1 1 1 1 1 0 0 1 1 1 10000
0 0 1 1 1 0 0 1 0 0 10000
1 1 0 1 1 1 0 0 0 0 10000
1 1 1 0 0 1 0 0 0 1 10000
0 0 1 1 1 0 0 0 1 1 10000
0 1 1 0 1 0 0 1 1 1 0
1 0 0 1 0 1 0 1 0 1 10000
1 1 1 0 1 0 0 1 0 1 10000
1 0 1 1 0 1 0 0 1 0 10000
1 1 1 1 1 0 1 1 1 1 10000
0 1 1 0 1 0 0 0 0 0 10000
0 0 1 1 1 1 1 0 1 0 0
0 0 0 1 0 0 0 1 1 1 10000
1 1 1 0 1 0 1 1 0 0 10000
1 1 1 0 1 1 0 1 0 1 10000
1 0 0 1 0 0 1 1 0 0 0
0 1 1 0 1 0 1 1 1 0 0
0 0 0 1 0 0 0 0 0 0 10000
0 1 1 0 1 1 1 0 0 1 0
1 1 1 1 1 1 0 1 0 1 10000
1 0 0 1 0 0 1 0 1 1 10000
1 0 1 0 1 0 0 1 1 0 10000
1 0 1 1 1 1 0 1 1 0 10000
1 0 1 0 1 0 1 0 1 1 0
0 0 0 1 0 0 1 1 1 0 10000
0 0 0 1 0 1 1 0 0 1 10000
1 1 1 0 1 0 1 0 1 1 10000
1 0 1 1 1 1 1 0 0 0 10000
1 0 1 1 1 0 1 1 1 1 0
0 0 0 0 0 1 1 0 1 1 10000
1 0 1 1 1 1 1 1 1 1 10000
1 0 1 1 1 0 1 0 0 0 10000
0 0 0 0 0 1 1 1 0 0 10000
1 0 0 1 1 0 1 0 0 1 10000
1 0 1 1 1 0 0 1 1 0 10000
1 0 0 1 1 1 1 1 1 0 10000
1 1 1 1 1 1 0 1 0 0 10000
0 0 0 0 0 0 0 1 0 1 10000
1 0 1 1 1 1 0 1 0 1 10000
1 1 1 0 0 0 1 0 0 1 10000
1 0 0 1 1 1 0 0 0 0 10000
1 1 1 0 0 1 1 1 1 0 10000
1 0 1 0 1 0 1 1 0 0 10000
1 0 0 1 1 1 0 1 1 1 10000
1 0 1 1 0 0 1 0 1 0 10000
1 1 0 0 0 0 0 1 0 1 0
0 0 1 1 1 0 0 0 1 0 10000
0 1 0 0 0 1 1 1 0 1 10000
1 0 0 1 0 1 0 1 0 0 0
1 0 1 1 0 1 0 0 1 1 0
0 1 1 0 1 0 0 0 0 1 10000
1 1 0 0 0 0 1 1 0 1 10000
1 0 0 1 0 1 0 0 1 1 10000
1 0 1 1 0 1 0 1 0 0 10000
1 1 1 0 1 1 0 1 0 0 10000
1 1 1 1 0 0 0 0 1 0 10000
0 0 0 1 0 0 0 0 0 1 0
1 0 0 0 1 1 1 0 1 0 10000
1 1 1 0 1 1 0 0 1 1 10000
1 0 0 1 0 0 1 0 1 0 0
1 0 1 1 1 1 0 1 1 1 0
0 1 0 1 0 0 0 0 0 1 10000
1 1 1 0 1 0 1 0 1 0 10000
1 0 1 1 1 1 1 1 1 0 0
0 0 1 0 1 0 0 0 0 1 10000
1 0 1 1 1 0 1 0 0 1 10000
0 0 0 0 0 1 1 1 0 1 10000
1 0 0 1 1 0 1 0 0 0 10000
0 1 1 1 1 0 0 0 1 0 10000
1 0 0 1 1 1 1 1 1 1 10000
1 1 1 1 0 1 0 0 0 1 10000
1 1 0 0 1 1 0 0 0 1 10000
1 0 0 1 1 0 1 1 1 1 10000
1 0 1 0 1 1 0 1 0 1 0
1 0 0 1 1 1 1 0 0 0 10000
1 1 1 0 0 0 1 0 0 0 10000
1 1 1 0 0 1 1 1 1 1 10000
0 1 0 0 0 0 0 1 0 1 10000
1 0 0 1 1 1 0 1 1 0 0
1 1 1 0 0 1 1 0 0 0 10000
1 0 1 1 0 0 1 0 1 1 0
1 0 0 0 1 1 1 0 0 1 10000
1 1 0 0 0 1 0 1 0 1 10000
1 0 0 0 1 1 1 1 0 1 10000
1 0 1 1 0 0 1 1 0 0 10000
0 1 0 0 0 1 1 1 0 0 10000
1 1 1 1 0 1 1 0 1 0 10000
1 1 0 0 0 0 1 1 0 0 0
0 1 0 0 0 1 1 0 1 1 10000
1 0 0 0 1 0 0 0 1 1 0
1 0 1 1 0 1 0 1 0 1 0
1 1 1 1 0 0 0 0 1 1 10000
1 1 0 0 0 0 1 0 1 1 10000
0 1 0 1 0 1 1 0 0 1 10000
1 1 1 0 1 1 0 0 1 0 10000
0 1 0 1 0 0 1 1 1 0 10000
1 0 0 1 1 1 0 0 1 1 0
1 1 0 1 0 0 1 1 1 1 10000
0 0 1 0 1 1 1 0 0 1 10000
0 1 0 1 0 0 0 0 0 0 10000
0 0 1 0 1 0 1 1 1 0 10000
0 1 0 1 0 0 0 1 1 1 10000
0 1 1 1 1 1 1 0 1 0 10000
0 0 1 0 1 0 0 0 0 0 10000
1 1 0 1 0 1 0 1 0 1 0
1 1 0 0 1 0 1 0 0 1 10000
1 1 0 0 1 1 1 1 1 0 10000
0 0 1 0 1 0 0 1 1 1 10000
0 1 1 1 1 0 0 0 1 1 10000
1 0 0 0 1 0 0 1 0 0 10000
1 1 0 0 1 1 0 0 0 0 10000
1 0 1 0 0 1 1 1 0 1 10000
1 0 0 1 1 0 1 1 1 0 0
0 1 1 1 1 0 0 1 0 0 10000
1 0 0 1 1 1 1 0 0 1 0
0 1 1 0 1 1 1 1 0 1 10000
1 0 0 0 1 0 0 0 0 0 10000
0 1 0 0 0 0 0 1 0 0 0
0 1 0 1 1 1 0 0 1 0 10000
1 1 1 0 0 1 1 0 0 1 0
0 0 0 1 0 1 1 1 0 1 10000
1 1 0 0 0 1 0 1 0 0 0
0 1 0 0 0 0 0 0 1 1 10000
1 1 1 1 0 0 1 0 1 0 10000
1 0 1 1 0 0 1 1 0 1 0
0 0 1 0 0 1 0 0 1 0 10000
1 1 1 1 0 1 1 0 1 1 0
1 1 0 0 0 1 0 0 1 1 10000
0 1 0 0 0 1 1 0 1 0 10000
0 1 0 1 0 1 0 1 1 0 10000
1 1 0 0 0 0 1 0 1 0 0
0 1 0 1 0 1 1 0 0 0 0
0 0 1 0 1 1 0 1 1 0 10000
0 1 0 1 0 0 1 1 1 1 10000
0 0 0 0 0 0 0 0 0 1 10000
1 1 0 0 0 1 1 0 1 0 10000
0 1 0 1 0 1 1 1 1 1 10000
0 1 0 1 0 0 1 0 0 0 10000
0 0 1 0 1 1 1 0 0 0 0
0 0 1 0 1 0 1 1 1 1 10000
1 1 0 0 1 0 0 1 1 0 10000
0 0 1 0 1 1 1 1 1 1 10000
0 1 0 1 0 0 0 1 1 0 0
0 0 1 0 1 0 1 0 0 0 10000
0 1 1 1 1 1 1 0 1 1 0
1 1 0 0 1 0 1 0 0 0 10000
1 1 0 0 1 1 1 1 1 1 10000
0 1 1 1 1 1 1 1 0 0 10000
0 0 1 0 1 0 0 1 1 0 0
1 1 1 1 1 0 0 0 0 0 10000
0 1 1 0 1 0 0 1 0 1 10000
1 1 0 0 1 1 1 0 0 0 10000
1 1 1 0 0 1 0 1 0 0 10000
0 1 0 1 1 0 1 0 1 0 10000
0 1 1 1 1 0 0 1 0 1 10000
0 0 0 1 0 0 0 1 0 1 10000
0 1 1 0 1 1 1 1 0 0 0
1 1 1 0 0 1 0 0 0 0 10000
0 0 1 0 0 0 1 0 1 0 10000
0 1 0 1 1 1 0 0 1 1 0
0 1 1 0 1 1 1 0 1 1 10000
0 0 0 1 0 1 1 1 0 0 10000
0 1 0 0 0 0 0 0 1 0 0
0 1 0 1 1 1 0 1 0 0 10000
1 1 0 1 1 1 0 0 0 1 10000
0 0 1 0 0 1 0 0 1 1 10000
0 0 0 1 0 1 1 0 1 1 10000
1 1 0 0 0 1 0 0 1 0 0
0 0 1 0 0 1 0 1 0 0 10000
0 1 0 1 0 1 0 1 1 1 10000
0 0 0 0 0 1 1 0 0 1 10000
0 0 0 0 0 0 1 1 1 0 10000
0 1 0 1 0 1 0 0 0 0 10000
0 0 1 0 1 1 0 1 1 1 10000
0 0 0 0 0 0 0 0 0 0 0
0 1 0 1 0 1 1 1 1 0 10000
0 0 1 0 1 1 0 0 0 0 10000
0 1 0 1 0 0 1 0 0 1 0
1 1 1 0 0 1 0 1 1 1 10000
0 0 0 0 0 0 0 1 1 1 10000
1 1 0 0 1 0 0 1 1 1 0
0 0 1 0 1 1 1 1 1 0 10000
0 0 1 0 1 0 1 0 0 1 0
1 1 0 0 1 0 0 0 0 0 10000
0 1 1 1 1 1 1 1 0 1 0
0 1 1 0 1 0 0 1 0 0 10000
1 1 0 0 1 1 1 0 0 1 0
1 0 1 1 0 1 0 0 0 1 10000
0 1 0 1 1 0 1 0 1 1 0
0 1 1 0 1 0 0 0 1 1 10000
1 1 0 0 0 0 0 1 0 0 10000
0 0 0 1 0 0 0 1 0 0 0
0 0 0 0 1 1 0 0 1 0 10000
0 1 0 1 1 0 1 1 0 0 10000
0 0 1 0 0 0 1 0 1 1 10000
0 0 0 1 0 0 0 0 1 1 10000
0 1 1 0 1 1 1 0 1 0 0
1 0 0 0 1 1 1 0 0 0 0
0 0 1 0 0 0 1 1 0 0 10000
0 1 0 1 1 1 0 1 0 1 0
1 0 0 1 0 1 0 0 1 0 0
0 0 0 1 0 1 1 0 1 0 10000
0 0 0 0 0 1 0 1 1 0 10000
1 1 1 0 0 0 1 1 0 1 0
0 0 1 0 0 1 0 1 0 1 10000
0 0 0 0 0 1 1 0 0 0 10000
0 0 0 0 0 0 1 1 1 1 10000
1 0 1 1 1 0 1 0 1 1 10000
0 1 0 1 0 1 0 0 0 1 0
0 0 0 0 0 1 1 1 1 1 10000
0 0 0 0 0 0 1 0 0 0 10000
1 0 0 1 1 1 1 1 0 1 10000
0 0 1 0 1 1 0 0 0 1 0
1 1 1 1 1 0 1 1 0 1 10000
0 0 0 0 0 0 0 1 1 0 10000
1 1 0 0 0 0 0 1 1 1 10000
1 1 1 0 0 1 1 1 0 1 10000
1 1 1 1 1 0 0 1 0 0 10000
1 1 1 1 1 1 1 1 0 0 10000
1 1 0 0 1 0 0 0 0 1 10000
1 0 1 1 0 0 1 0 0 1 10000
1 0 1 1 0 1 1 1 1 0 10000
0 0 0 0 1 0 1 0 1 0 10000
1 0 1 1 0 1 0 0 0 0 10000
0 1 1 0 1 0 0 0 1 0 10000
1 0 0 0 0 1 0 0 1 0 10000
0 0 0 0 1 1 0 0 1 1 10000
1 0 1 1 0 1 0 1 1 1 10000
0 1 0 1 1 0 1 1 0 1 0
1 1 1 1 0 0 0 0 0 1 10000
1 1 1 0 1 1 1 1 1 0 0
0 0 0 1 0 0 0 0 1 0 0
0 0 0 0 1 1 0 1 0 0 10000
0 0 1 0 0 0 1 1 0 1 10000
1 0 1 0 0 0 0 0 1 0 10000
0 0 0 0 0 1 0 1 1 1 10000
1 0 1 1 1 1 0 0 1 1 10000
1 1 1 1 1 0 1 1 1 0 10000
1 1 0 1 1 0 0 0 1 0 10000
0 0 0 0 0 1 0 0 0 0 10000
1 0 0 1 1 0 0 1 0 1 10000
1 0 1 1 1 0 1 0 1 0 10000
0 0 0 0 0 1 1 1 1 0 10000
0 0 0 0 0 0 1 0 0 1 10000
0 1 1 1 1 0 0 0 0 1 10000
1 0 0 1 1 1 1 1 0 0 0
1 0 0 1 1 1 1 0 1 1 10000
1 0 1 1 0 0 0 1 1 0 10000
1 0 0 0 0 1 0 0 0 1 10000
1 1 1 0 0 1 1 0 1 1 10000
1 0 1 1 0 0 1 0 0 0 10000
1 0 1 1 0 1 1 1 1 1 10000
1 0 1 1 1 1 0 0 0 0 10000
0 0 0 0 1 0 1 0 1 1 10000
1 0 1 1 0 0 1 1 1 1 10000
1 0 1 1 0 1 1 0 0 0 10000
1 1 1 1 0 0 1 1 1 0 10000
0 0 0 0 1 0 1 1 0 0 10000
1 0 1 1 1 1 0 1 0 0 10000
1 0 1 1 0 1 0 1 1 0 0
1 0 1 0 0 1 1 0 1 0 10000
1 0 1 0 1 0 0 0 0 0 10000
1 0 1 0 1 0 1 1 0 1 0
1 0 1 1 1 1 1 1 0 1 0
0 0 0 0 1 1 0 1 0 1 10000
0 1 0 1 0 0 1 1 0 1 10000
1 1 0 1 1 1 1 0 1 0 10000
1 0 1 0 0 0 0 0 1 1 0
1 0 1 1 1 1 0 0 1 0 10000
0 0 1 0 1 0 1 1 0 1 10000
1 1 0 1 1 0 0 0 1 1 10000
0 0 0 0 0 1 0 0 0 1 10000
0 1 1 1 1 1 1 0 0 1 10000
1 0 0 1 1 0 0 1 0 0 10000
0 1 1 1 1 0 1 1 1 0 10000
1 0 0 0 1 1 1 0 1 1 10000
1 1 0 0 1 1 1 1 0 1 10000
1 0 0 1 1 0 0 0 1 1 10000
0 1 1 1 1 0 0 0 0 0 10000
1 1 1 1 1 1 0 0 1 0 10000
0 1 1 1 1 0 0 1 1 1 10000
1 0 0 1 1 0 0 1 1 0 10000
1 0 1 1 0 0 0 1 1 1 0
1 1 0 0 0 1 1 1 0 0 10000
0 1 0 1 1 1 0 0 0 1 10000
1 1 1 0 0 1 1 0 1 0 0
1 1 1 1 0 1 0 1 1 0 10000
1 1 0 1 0 0 0 0 0 0 10000
1 0 1 1 0 0 1 1 1 0 0
0 0 1 0 0 1 0 0 0 1 10000
1 0 1 1 0 1 1 0 0 1 0
1 1 1 1 0 0 1 1 1 1 0
0 0 0 0 1 0 1 1 0 1 10000
0 1 0 1 0 1 0 1 0 1 10000
1 0 0 0 1 1 1 1 0 0 10000
0 1 1 1 0 1 0 0 1 0 10000
1 0 1 0 0 1 1 0 1 1 10000
1 1 0 1 0 0 1 1 0 0 10000
0 0 1 0 1 1 0 1 0 1 10000
0 1 0 1 0 0 1 1 0 0 0
1 1 0 1 1 1 1 0 1 1 0
0 1 0 1 0 0 1 0 1 1 10000
0 1 1 1 1 1 0 1 1 0 10000
0 0 1 0 1 0 1 1 0 0 0
1 1 0 0 1 0 0 1 0 1 10000
1 1 0 1 0 1 0 1 0 0 10000
0 0 1 0 1 0 1 0 1 1 10000
0 1 1 1 1 1 1 0 0 0 10000
1 1 0 1 0 1 0 1 1 0 0
0 1 1 1 1 0 1 1 1 1 0
1 1 1 0 0 0 0 1 1 0 10000
1 1 0 0 1 1 1 1 0 0 0
0 1 1 1 1 1 1 1 1 1 10000
1 0 0 1 1 0 0 0 1 0 10000
0 1 1 1 1 0 1 0 0 0 10000
1 1 1 1 1 1 0 0 1 1 10000
1 1 0 0 1 1 1 0 1 1 10000
1 1 0 1 0 0 1 1 1 0 0
0 1 0 1 1 0 1 0 0 1 10000
0 1 1 1 1 0 0 1 1 0 10000
0 1 0 1 1 1 1 1 1 0 10000
1 0 0 0 1 1 1 1 1 1 10000
0 0 1 0 0 0 1 0 0 1 10000
0 1 0 1 1 1 0 0 0 0 10000
0 0 1 0 0 1 1 1 1 0 10000
1 1 1 1 0 1 0 1 1 1 0
0 1 0 1 1 1 0 1 1 1 10000
0 1 1 1 0 0 1 0 1 0 10000
0 0 1 0 0 1 0 0 0 0 0
0 0 1 0 0 1 0 1 1 1 10000
0 1 0 1 0 1 0 1 0 0 0
0 1 1 1 0 1 0 0 1 1 0
0 0 0 0 0 0 1 1 0 1 10000
0 1 0 1 0 1 0 0 1 1 10000
0 1 1 1 0 1 0 1 0 0 10000
0 0 1 0 1 1 0 1 0 0 0
0 0 1 1 0 0 0 0 1 0 10000
0 0 1 0 1 1 0 0 1 1 10000
0 1 0 1 0 0 1 0 1 0 0
0 1 1 1 1 1 0 1 1 1 0
0 1 1 1 0 1 1 0 0 1 0
1 1 1 0 0 0 0 1 0 1 10000
0 1 1 1 1 1 0 0 0 0 10000
0 0 1 0 1 0 1 0 1 0 0
1 1 1 1 1 0 1 0 1 1 10000
1 1 0 0 1 0 0 0 1 1 10000
0 1 1 1 1 1 1 1 1 0 0
0 1 0 1 1 0 0 1 1 0 10000
0 1 1 1 1 0 1 0 0 1 10000
1 0 1 0 1 0 0 1 1 1 0
1 0 0 0 1 0 0 1 1 0 0
0 1 0 1 1 0 1 0 0 0 10000
0 0 1 0 0 0 0 1 1 0 10000
0 1 0 1 1 1 1 1 1 1 10000
0 0 0 0 1 1 0 0 0 1 10000
0 1 0 1 1 0 1 1 1 1 10000
1 1 1 0 0 0 1 1 1 1 10000
0 1 0 1 1 1 1 0 0 0 10000
0 0 1 0 0 0 1 0 0 0 0
0 0 1 0 0 1 1 1 1 1 10000
0 0 1 0 0 0 1 1 1 1 10000
0 1 0 1 1 1 0 1 1 0 0
0 0 1 0 0 1 1 0 0 0 10000
0 1 1 1 0 0 1 0 1 1 0
1 1 1 0 0 1 0 1 0 1 0
0 0 0 0 0 1 0 1 0 1 10000
1 0 0 0 1 0 1 1 1 0 10000
0 1 1 1 0 0 1 1 0 0 10000
0 0 1 0 0 1 0 1 1 0 10000
0 0 1 1 0 1 1 0 1 0 10000
1 1 1 0 0 1 1 1 0 0 0
0 0 0 0 0 0 1 1 0 0 10000
0 1 0 1 0 1 0 0 1 0 0
0 1 1 1 0 1 0 1 0 1 0
0 0 1 1 0 0 0 0 1 1 0
0 0 0 0 0 0 1 0 1 1 10000
1 1 0 1 0 0 1 1 0 1 0
0 0 1 0 1 1 0 0 1 0 0
0 0 1 1 0 0 0 1 0 0 10000
0 1 1 1 1 1 0 0 0 1 10000
1 1 0 0 1 0 0 0 1 0 10000
1 0 1 1 0 1 1 1 0 1 10000
0 1 0 1 1 0 0 1 1 1 0
0 0 0 0 1 0 1 0 0 1 10000
0 0 0 0 1 1 1 1 1 0 10000
0 1 0 1 1 0 0 0 0 0 10000
1 1 1 0 0 1 0 1 1 0 0
0 0 1 0 0 0 0 1 1 1 10000
0 0 0 0 1 1 0 0 0 0 0
1 1 0 1 1 1 1 1 1 0 0
0 1 0 1 1 0 1 1 1 0 0
0 0 1 0 0 0 0 0 0 0 10000
0 1 0 1 1 1 1 0 0 1 0
0 0 0 0 1 1 0 1 1 1 10000
1 1 0 0 0 1 1 1 1 1 10000
1 0 0 0 1 1 0 1 1 0 10000
0 0 1 0 0 0 1 1 1 0 10000
1 0 1 0 0 0 0 0 0 1 10000
0 0 1 0 0 1 1 0 0 1 10000
0 0 0 0 0 1 0 1 0 0 10000
1 0 0 0 1 0 1 1 1 1 10000
0 1 1 1 0 0 1 1 0 1 0
1 1 0 1 1 0 0 0 0 1 10000
0 0 1 1 0 1 1 0 1 1 10000
0 0 0 0 0 1 0 0 1 1 10000
1 0 0 0 1 0 1 0 0 0 10000
0 0 1 1 0 1 1 1 0 0 10000
1 0 0 0 0 0 1 0 1 0 10000
0 0 0 0 0 0 1 0 1 0 10000
1 1 1 1 1 0 0 0 1 0 10000
0 0 1 1 0 0 0 1 0 1 0
1 0 1 1 1 0 1 1 0 0 10000
1 0 1 1 0 0 0 1 0 1 10000
1 1 1 1 0 1 1 0 0 1 10000
0 0 0 0 1 0 0 1 1 0 10000
1 0 1 1 0 1 1 1 0 0 0
0 0 0 0 1 0 1 0 0 0 0
0 0 0 0 1 1 1 1 1 1 10000
1 0 1 1 0 1 1 0 1 1 10000
0 1 0 1 1 0 0 0 0 1 10000
1 1 1 1 0 0 1 1 0 1 10000
0 0 0 0 1 0 1 1 1 1 10000
0 0 0 0 1 1 1 0 0 0 10000
1 1 0 0 0 0 0 1 1 0 0
1 0 1 0 0 1 1 0 0 1 10000
0 0 1 0 0 0 0 0 0 1 0
1 0 1 0 0 0 1 1 1 0 10000
0 0 0 0 1 1 0 1 1 0 10000
1 0 0 0 0 0 1 0 0 1 10000
1 1 0 1 1 1 1 0 0 1 10000
1 0 1 0 0 0 0 0 0 0 10000
1 1 0 1 1 0 1 1 1 0 10000
1 0 0 0 1 1 0 0 0 0 10000
1 0 1 0 0 0 0 1 1 1 10000
1 0 0 0 0 1 0 0 1 1 10000
0 0 0 0 0 1 0 0 1 0 10000
1 0 0 0 1 0 1 0 0 1 0
1 1 1 1 1 0 0 0 0 1 10000
0 1 1 1 1 0 1 1 0 1 10000
0 0 1 1 0 1 1 1 0 1 10000
1 1 1 1 0 0 0 1 0 0 10000
0 1 0 0 1 0 0 0 1 0 10000
1 1 1 1 1 1 0 0 0 1 10000
1 1 1 1 0 0 0 0 0 0 10000
1 0 1 1 0 0 0 1 0 0 10000
1 0 1 0 1 1 0 0 1 0 10000
0 0 0 0 1 0 0 1 1 1 10000
1 0 1 1 0 0 0 0 1 1 10000
1 1 1 1 0 1 0 1 0 1 10000
1 1 1 0 0 0 0 0 1 0 10000
1 1 0 1 0 1 0 0 1 0 10000
0 0 0 0 1 0 0 0 0 0 10000
1 0 0 0 0 1 0 1 0 0 10000
1 0 1 1 0 1 1 0 1 0 0
1 0 1 0 0 1 0 1 1 0 10000
1 1 1 1 0 0 1 1 0 0 10000
0 0 0 0 1 0 1 1 1 0 10000
0 0 0 0 1 1 1 0 0 1 10000
1 0 0 0 0 1 0 0 0 0 0
0 1 1 1 0 1 0 0 0 1 10000
1 0 1 0 0 1 1 0 0 0 0
1 1 0 1 1 1 0 1 1 0 10000
1 0 1 0 0 0 1 1 1 1 10000
1 0 1 0 0 1 1 1 1 1 10000
1 1 1 1 0 0 0 1 1 1 10000
1 0 1 0 0 0 1 0 0 0 10000
1 0 1 1 1 1 0 0 0 1 10000
1 1 0 1 1 0 1 1 1 1 0
1 0 0 0 1 1 0 0 0 1 0
1 1 1 0 1 0 0 0 1 0 10000
0 1 1 1 1 1 0 1 0 1 10000
1 0 1 0 0 0 0 1 1 0 0
1 1 0 1 1 0 1 0 0 0 10000
0 1 0 0 1 1 1 0 1 0 10000
1 0 1 0 1 0 0 0 0 1 10000
1 1 1 1 1 0 1 0 0 1 10000
0 1 1 1 1 0 1 1 0 0 10000
1 1 1 1 1 1 1 1 1 0 10000
0 1 0 0 1 0 0 0 1 1 0
0 1 1 1 1 0 1 0 1 1 10000
1 0 1 0 1 0 1 0 1 0 10000
1 1 1 1 1 1 0 0 0 0 10000
1 1 0 0 0 1 1 1 1 0 10000
1 0 0 0 0 1 0 1 1 1 10000
0 1 0 0 1 0 0 1 0 0 10000
0 1 0 1 1 1 1 1 0 1 10000
1 1 0 1 0 0 1 0 1 0 10000
1 0 1 0 1 1 0 0 1 1 0
1 0 0 0 1 1 0 1 1 1 10000
0 0 1 0 0 1 1 1 0 1 10000
1 1 1 1 0 1 0 1 0 0 10000
1 1 0 1 0 1 0 0 1 1 0
0 0 0 0 1 0 0 0 0 1 0
0 1 1 1 0 0 1 0 0 1 10000
0 1 1 1 0 1 1 1 1 0 10000
1 0 1 0 0 1 0 1 1 1 10000
1 0 1 0 0 0 0 1 0 0 10000
1 0 0 1 1 0 0 1 1 1 0
1 0 1 0 0 1 0 0 0 0 10000
0 1 1 1 0 1 0 0 0 0 10000
1 0 1 0 0 0 1 1 0 1 10000
0 1 1 1 0 1 0 1 1 1 10000
1 0 1 0 0 1 1 1 1 0 10000
0 0 1 1 0 0 0 0 0 1 10000
1 0 1 0 0 0 1 0 0 1 0
1 1 0 1 0 0 0 0 0 1 10000
0 1 1 1 1 1 0 1 0 0 10000
0 1 1 0 0 0 0 0 1 0 10000
1 1 0 1 1 0 1 0 0 1 10000
0 1 0 0 1 1 1 0 1 1 10000
0 1 1 1 1 1 0 0 1 1 10000
1 1 1 1 1 0 1 0 0 0 10000
0 0 0 1 1 0 0 0 1 0 10000
1 1 1 1 1 1 1 1 1 1 0
0 1 0 0 1 1 1 1 0 0 10000
0 1 0 1 1 0 0 1 0 1 10000
0 1 1 1 1 0 1 0 1 0 10000
1 1 1 1 1 1 1 0 0 0 10000
1 0 0 1 1 0 0 0 0 0 10000
0 1 0 0 1 0 0 1 0 1 0
0 0 1 0 0 0 0 1 0 1 10000
0 1 0 1 1 1 1 1 0 0 0
1 1 0 1 0 0 1 0 1 1 0
1 1 0 1 1 0 0 0 0 0 10000
0 1 0 1 1 1 1 0 1 1 10000
1 1 0 1 1 0 0 1 0 0 10000
0 1 1 1 0 0 0 1 1 0 10000
0 0 1 0 0 1 1 1 0 0 10000
1 1 1 0 1 0 0 1 0 0 10000
0 0 1 0 0 1 1 0 1 1 10000
0 1 1 1 0 0 1 0 0 0 10000
0 1 1 1 0 1 1 1 1 1 10000
1 1 1 1 1 0 1 1 0 0 10000
1 0 0 0 1 0 1 1 0 1 10000
1 1 0 0 1 1 0 1 0 0 10000
0 1 1 1 0 0 1 1 1 1 10000
0 0 1 1 0 1 1 0 0 1 10000
1 0 1 0 0 1 0 0 0 1 0
0 0 1 1 0 0 1 1 1 0 10000
1 0 0 0 1 1 1 1 1 0 10000
0 1 1 1 0 1 0 1 1 0 0
0 1 1 0 0 1 1 0 1 0 10000
0 0 1 1 0 0 0 0 0 0 10000
0 0 1 1 0 0 0 1 1 1 10000
0 0 0 1 1 1 1 0 1 0 10000
0 1 1 0 0 0 0 0 1 1 0
1 1 1 0 0 0 0 0 0 0 10000
0 1 1 1 1 1 0 0 1 0 10000
0 1 1 0 0 0 0 1 0 0 10000
0 0 0 1 1 0 0 0 1 1 0
0 1 0 0 1 1 1 1 0 1 10000
1 1 1 0 0 0 0 1 0 0 10000
0 1 0 1 1 0 0 1 0 0 10000
0 0 0 1 1 0 0 1 0 0 10000
1 1 1 1 1 1 1 0 0 1 10000
0 0 0 0 1 1 1 1 0 1 10000
0 1 0 1 1 0 0 0 1 1 10000
0 0 1 0 0 0 0 1 0 0 0
0 0 1 1 1 1 0 0 1 0 10000
1 1 0 0 1 1 0 1 1 1 10000
0 0 1 0 0 0 0 0 1 1 10000
0 1 0 1 1 1 1 0 1 0 0
0 1 1 1 0 0 0 1 1 1 0
1 0 0 0 1 1 0 1 0 1 10000
0 1 1 1 0 0 0 0 0 0 10000
0 0 1 0 0 1 1 0 1 0 10000
0 0 1 1 0 1 0 1 1 0 10000
1 0 0 0 1 0 1 1 0 0 0
0 1 1 1 0 0 1 1 1 0 0
0 0 1 1 0 1 1 0 0 0 0
0 0 1 1 0 0 1 1 1 1 10000
1 0 0 0 1 0 1 0 1 1 10000
1 1 1 0 0 0 1 1 1 0 0
0 0 1 1 0 1 1 1 1 1 10000
1 0 0 1 1 1 1 0 1 0 0
0 0 1 1 0 0 1 0 0 0 10000
0 1 1 0 0 1 1 0 1 1 10000
1 0 0 0 1 0 0 1 0 1 0
0 1 1 0 0 1 1 1 0 0 10000
0 0 1 1 0 0 0 1 1 0 0
0 0 0 1 1 1 1 0 1 1 10000
1 1 1 0 0 0 1 0 1 1 0
0 0 0 1 1 1 1 1 0 0 10000
0 1 1 0 0 0 0 1 0 1 0
0 0 0 0 1 0 0 1 0 1 10000
1 1 0 0 0 1 1 1 0 1 10000
1 0 0 0 0 1 1 1 1 0 10000
0 0 1 1 1 0 1 0 1 0 10000
0 0 0 1 1 0 0 1 0 1 0
0 0 0 0 1 1 1 1 0 0 10000
0 1 0 1 1 0 0 0 1 0 10000
0 0 1 1 1 1 0 0 1 1 0
0 0 0 0 1 1 1 0 1 1 10000
0 0 1 0 0 0 0 0 1 0 0
0 0 1 1 1 1 0 1 0 0 10000
1 0 0 0 1 1 0 1 0 0 0
1 0 0 1 0 0 0 0 1 0 10000
1 0 1 1 0 0 0 0 0 0 10000
0 1 1 1 0 0 0 0 0 1 10000
1 1 0 1 1 0 1 1 0 1 10000
0 0 1 1 0 1 0 1 1 1 10000
1 0 0 0 1 1 0 0 1 1 10000
1 1 1 0 0 0 0 0 1 1 10000
0 0 1 1 0 1 0 0 0 0 10000
1 1 1 1 0 1 1 1 0 1 0
1 0 1 0 0 1 0 1 0 0 0
1 0 0 0 1 0 1 0 1 0 0
0 0 1 1 0 1 1 1 1 0 10000
0 0 1 1 0 0 1 0 0 1 0
0 1 0 0 1 0 0 0 0 1 10000
0 1 1 0 0 1 1 1 0 1 10000
1 0 0 0 0 0 0 1 1 0 10000
1 0 1 0 1 1 0 0 0 1 10000
0 0 0 1 1 1 1 1 0 1 10000
0 0 0 0 1 0 0 1 0 0 0
1 0 0 0 0 0 1 0 1 1 10000
1 1 0 1 0 1 0 0 0 1 10000
0 0 1 1 1 0 1 0 1 1 0
0 0 0 0 1 0 0 0 1 1 10000
1 1 0 1 1 0 0 1 1 1 10000
1 0 0 0 0 1 1 0 0 0 10000
1 1 1 1 0 1 1 1 0 0 10000
0 0 1 1 1 0 1 1 0 0 10000
0 0 0 0 1 1 1 0 1 0 10000
1 0 0 1 0 1 1 0 1 0 10000
1 1 1 1 0 1 1 0 0 0 10000
1 1 0 1 1 1 0 1 0 1 10000
0 0 1 1 1 1 0 1 0 1 0
1 1 1 0 1 1 1 0 1 0 10000
1 0 0 1 0 0 0 0 1 1 0
1 0 1 0 0 0 1 0 1 1 10000
1 1 0 1 1 0 1 1 0 0 10000
1 0 0 0 1 1 0 0 1 0 0
1 0 0 1 0 0 0 1 0 0 10000
1 1 1 0 1 0 0 0 1 1 10000
1 1 0 1 1 0 1 0 1 1 10000
0 0 1 1 0 1 0 0 0 1 0
1 0 0 0 0 0 1 1 0 0 10000
0 1 0 0 1 1 1 0 0 1 10000
0 1 0 0 1 0 1 1 1 0 10000
1 1 1 1 1 1 1 1 0 1 10000
1 0 1 1 1 1 1 0 1 1 0
1 0 0 0 0 0 1 0 0 0 0
0 1 0 0 1 0 0 0 0 0 10000
1 1 1 1 1 0 0 1 0 1 10000
1 0 1 0 1 0 1 0 0 1 10000
1 0 1 0 1 1 1 1 1 0 10000
0 1 0 0 1 0 0 1 1 1 10000
1 1 1 1 0 1 1 1 1 1 10000
1 0 0 0 0 0 0 1 1 1 10000
1 1 0 1 0 0 1 0 0 1 10000
1 0 1 0 1 1 0 0 0 0 10000
1 1 0 1 0 1 1 1 1 0 10000
1 0 0 0 0 0 0 0 0 0 10000
1 1 1 1 0 0 1 0 0 0 10000
1 0 1 0 1 1 0 1 1 1 10000
1 1 1 1 0 0 0 1 0 1 10000
1 1 0 1 0 1 0 0 0 0 10000
0 0 0 0 1 0 0 0 1 0 0
1 0 0 0 0 1 1 0 0 1 10000
0 1 1 1 0 1 1 1 0 1 10000
0 0 1 1 1 0 1 1 0 1 0
0 1 0 0 0 1 0 0 1 0 10000
1 0 0 1 0 1 1 0 1 1 10000
1 0 1 0 0 1 0 0 1 1 10000
1 0 0 0 0 0 1 1 1 1 10000
1 1 0 1 1 1 0 1 0 0 10000
1 1 0 0 0 0 0 0 1 0 10000
1 0 0 1 0 1 1 1 0 0 10000
1 1 1 0 1 1 1 0 1 1 0
1 1 0 1 1 1 0 0 1 1 10000
1 0 1 0 0 0 1 0 1 0 0
1 1 1 1 0 0 1 0 0 1 10000
1 0 0 0 0 1 0 1 0 1 10000
0 1 0 0 1 1 0 1 1 0 10000
1 0 0 1 0 0 0 1 0 1 0
0 1 1 0 0 0 0 0 0 1 10000
1 1 0 1 1 0 1 0 1 0 10000
0 1 0 0 1 1 1 0 0 0 0
0 1 0 0 1 0 1 1 1 1 10000
1 0 1 0 0 1 1 1 0 0 10000
0 0 0 1 1 0 0 0 0 1 10000
1 1 1 0 0 0 1 1 0 0 10000
0 1 0 0 1 1 1 1 1 1 10000
1 1 1 1 0 0 1 0 1 1 10000
0 1 0 0 1 0 1 0 0 0 10000
1 1 1 1 0 0 0 1 1 0 10000
1 0 1 0 0 1 0 1 0 1 10000
1 1 1 1 1 1 1 0 1 1 10000
1 0 1 0 1 0 1 0 0 0 10000
1 1 0 1 0 0 0 1 1 0 10000
1 0 1 0 1 1 1 1 1 1 10000
0 1 0 0 1 0 0 1 1 0 0
1 0 1 0 1 0 1 1 1 1 10000
1 0 1 0 1 1 1 0 0 0 10000
1 1 0 1 0 0 1 0 0 0 10000
1 1 0 1 0 1 1 1 1 1 10000
1 0 0 0 0 0 0 0 0 1 0
0 1 1 1 0 0 0 1 0 1 10000
1 0 1 0 1 1 0 1 1 0 0
1 1 0 1 0 1 1 0 0 0 10000
0 1 0 0 0 0 1 0 1 0 10000
1 1 0 1 1 0 0 1 0 1 10000
0 1 1 1 0 1 1 1 0 0 0
1 0 0 0 0 1 0 1 1 0 10000
0 1 0 0 0 1 0 0 1 1 10000
0 1 1 1 0 1 1 0 1 1 10000
1 0 1 0 0 1 0 0 1 0 0
0 0 1 1 0 0 1 1 0 1 10000
1 1 0 0 0 0 0 0 1 1 0
0 1 0 0 0 1 0 1 0 0 10000
1 0 0 1 0 1 1 1 0 1 10000
0 1 1 0 0 1 1 0 0 1 10000
1 1 0 1 1 1 0 0 1 0 10000
0 1 1 0 0 0 1 1 1 0 10000
1 1 0 0 1 0 1 1 0 0 10000
1 1 0 1 1 1 1 1 0 0 10000
0 1 0 0 1 1 0 1 1 1 10000
0 0 0 1 1 1 1 0 0 1 10000
0 1 1 0 0 0 0 0 0 0 10000
0 0 0 1 1 0 1 1 1 0 10000
1 1 0 0 1 1 0 1 0 1 0
0 1 0 0 1 1 0 0 0 0 10000
1 1 0 1 1 1 1 0 0 0 10000
0 1 1 0 0 0 0 1 1 1 10000
1 0 1 0 0 0 1 1 0 0 0
0 0 0 1 1 0 0 0 0 0 10000
0 1 0 0 1 1 1 1 1 0 10000
0 1 0 0 1 0 1 0 0 1 0
0 0 0 1 1 0 0 1 1 1 10000
1 1 1 1 1 1 1 0 1 0 10000
1 1 0 1 0 0 0 1 1 1 0
1 0 1 0 1 0 1 1 1 0 0
0 0 1 1 1 1 0 0 0 1 10000
1 0 1 0 1 1 1 0 0 1 0
0 1 1 1 0 0 0 1 0 0 10000
0 1 1 0 1 1 0 0 1 0 10000
1 1 0 1 0 1 1 0 0 1 0
0 1 0 0 0 0 1 0 1 1 10000
0 1 1 1 0 0 0 0 1 1 10000
1 0 0 1 1 0 0 0 0 1 10000
0 0 1 1 0 1 0 1 0 1 10000
1 1 0 1 1 1 1 1 1 1 10000
0 0 0 1 0 1 0 0 1 0 10000
1 1 0 0 0 1 1 0 1 1 10000
0 1 0 0 0 0 1 1 0 0 10000
0 1 1 1 0 1 1 0 1 0 0
0 1 1 0 0 1 0 1 1 0 10000
0 0 1 1 0 0 1 1 0 0 0
0 1 0 0 0 1 0 1 0 1 10000
1 1 0 0 1 0 1 1 1 1 10000
0 0 1 1 0 0 1 0 1 1 10000
0 1 1 0 0 1 1 0 0 0 0
0 0 0 1 1 1 0 1 1 0 10000
0 1 1 0 0 0 1 1 1 1 10000
0 1 1 0 0 1 1 1 1 1 10000
0 1 1 0 0 0 1 0 0 0 10000
0 0 0 1 1 1 1 0 0 0 0
0 0 0 1 1 0 1 1 1 1 10000
0 1 0 0 1 1 0 0 0 1 0
0 0 0 1 1 1 1 1 1 1 10000
0 1 1 0 0 0 0 1 1 0 0
0 0 0 1 1 0 1 0 0 0 10000
1 0 0 0 0 1 1 1 0 1 10000
1 1 1 0 1 1 1 1 0 1 0
0 0 1 1 1 0 1 0 0 1 10000
0 0 0 1 1 0 0 1 1 0 0
0 0 1 1 1 1 1 1 1 0 10000
0 1 1 0 1 0 1 0 1 0 10000
0 0 1 1 1 1 0 0 0 0 10000
1 1 1 0 0 0 0 0 0 1 10000
0 0 1 1 1 1 0 1 1 1 10000
0 0 0 1 0 0 1 0 1 0 10000
0 1 1 0 1 1 0 0 1 1 0
1 0 0 1 0 0 0 0 0 1 10000
0 1 1 1 0 0 0 0 1 0 10000
0 1 1 0 1 1 0 1 0 0 10000
0 0 1 1 0 1 0 1 0 0 0
0 0 0 1 0 1 0 0 1 1 10000
0 1 0 0 0 0 1 1 0 1 10000
1 1 1 0 1 0 0 0 0 1 10000
0 0 1 1 0 1 0 0 1 1 10000
1 1 0 0 1 1 0 1 1 0 0
0 0 0 1 0 1 0 1 0 0 10000
0 1 1 0 0 1 0 1 1 1 10000
1 0 1 1 1 0 0 0 1 0 10000
0 1 1 0 0 1 0 0 0 0 10000
0 0 1 1 0 0 1 0 1 0 0
0 0 0 1 1 1 0 1 1 1 10000
0 1 1 0 0 1 1 1 1 0 10000
0 0 0 1 1 1 0 0 0 0 10000
0 1 1 0 0 0 1 0 0 1 0
1 0 0 0 0 0 0 1 0 1 10000
0 0 0 1 1 1 1 1 1 0 10000
0 0 1 1 1 0 0 1 1 0 10000
0 0 0 1 1 0 1 0 0 1 0
1 1 1 1 1 1 0 1 1 0 10000
1 0 0 0 0 1 1 1 0 0 10000
1 1 1 1 1 0 0 0 1 1 10000
0 0 1 1 1 0 1 0 0 0 10000
0 0 1 1 1 1 1 1 1 1 10000
1 0 0 0 0 1 1 0 1 1 10000
0 0 1 1 1 0 1 1 1 1 10000
0 0 1 1 1 1 1 0 0 0 10000
0 1 1 0 1 0 1 0 1 1 0
1 0 0 1 0 1 1 0 0 1 10000
1 0 0 1 0 0 1 1 1 0 10000
0 1 1 0 1 0 1 1 0 0 10000
0 0 1 1 1 1 0 1 1 0 0
0 0 0 1 0 0 1 0 1 1 10000
1 1 1 0 1 1 1 0 0 1 10000
1 0 0 1 0 0 0 0 0 0 10000
1 1 1 0 1 0 1 1 1 0 10000
0 0 0 1 0 0 1 1 0 0 10000
0 1 1 0 1 1 0 1 0 1 0
1 0 0 1 0 0 0 1 1 1 10000
1 1 1 0 1 0 0 1 1 1 10000
1 0 1 1 1 1 1 0 1 0 10000
1 1 1 0 1 0 0 0 0 0 10000
1 1 0 1 1 0 0 1 1 0 10000
0 0 1 1 0 1 0 0 1 0 0
0 0 0 1 0 1 0 1 0 1 10000
0 1 0 0 1 0 1 1 0 1 10000
6 16 17 18 6 7 14 0 64
1 0 0 1 1 1 10000
0 1 0 1 1 0 10000
0 1 1 1 0 1 0
1 1 0 0 1 0 10000
0 0 1 0 1 0 0
0 1 1 0 0 0 10000
1 0 0 0 0 0 10000
0 1 1 1 1 1 10000
1 0 0 1 0 0 0
1 1 1 1 1 0 10000
0 0 1 0 0 1 0
0 1 1 0 1 1 0
0 0 1 1 0 0 0
0 1 1 1 0 0 10000
1 0 1 1 0 1 0
0 0 1 0 1 1 10000
1 1 1 0 1 0 10000
0 1 1 0 0 1 10000
1 0 1 0 0 0 10000
0 0 1 1 1 1 10000
1 1 1 1 0 0 10000
1 0 1 1 1 1 10000
1 0 0 1 1 0 10000
0 0 1 0 0 0 10000
1 1 1 0 0 1 10000
0 1 1 0 1 0 10000
1 0 1 0 1 1 0
0 0 1 1 0 1 10000
0 0 0 1 1 0 10000
1 0 1 1 0 0 10000
1 1 1 0 1 1 10000
1 0 1 0 0 1 10000
1 1 1 1 0 1 10000
0 0 1 1 1 0 10000
0 0 0 1 0 1 10000
0 0 0 0 0 0 0
1 1 1 0 0 0 10000
1 0 1 0 1 0 10000
0 1 0 0 1 0 0
0 0 0 1 1 1 10000
1 1 0 1 1 0 0
0 0 0 0 1 1 10000
1 0 0 1 0 1 10000
0 1 0 0 0 1 0
0 0 0 1 0 0 10000
1 1 0 1 0 1 0
0 1 0 1 0 0 0
0 0 0 0 0 1 10000
1 1 0 0 0 0 10000
0 1 0 0 1 1 10000
1 0 0 0 1 0 0
1 1 0 1 1 1 10000
0 1 0 1 1 1 10000
0 0 0 0 1 0 10000
1 1 0 0 1 1 0
0 1 0 0 0 0 10000
1 0 0 0 0 1 0
1 1 0 1 0 0 10000
0 1 0 1 0 1 10000
0 1 1 1 1 0 0
1 1 0 0 0 1 10000
1 0 1 1 1 0 0
1 1 1 1 1 1 0
1 0 0 0 1 1 10000
4 19 20 10 13 0 16
1 0 1 1 10000
1 1 0 1 10000
1 0 0 0 10000
0 1 1 0 0
1 0 1 0 0
0 0 0 1 10000
0 0 1 1 10000
1 0 0 1 0
0 1 0 0 10000
1 1 1 1 0
0 0 0 0 0
0 0 1 0 10000
0 1 0 1 0
1 1 1 0 10000
0 1 1 1 10000
1 1 0 0 10000
2 21 15 0 4
0 1 10000
1 0 10000
0 0 0
1 1 0
